
50
139346

3288 3288
9833 9833
9593 9593
9184 9184
7900 7900
8751 8751
5 5
6270 6270
2477 2477
7305 7305
4324 4324
5601 5601
5428 5428
5762 5762
8274 8274
9816 9816
3456 3456
8062 8062
8893 8893
3921 3921
1235 1235
4974 4974
7647 7647
5242 5242
1845 1845
7055 7055
3246 3246
8863 8863
1685 1685
5939 5939
3855 3855
9850 9850
1387 1387
8802 8802
4177 4177
3719 3719
2082 2082
4946 4946
9294 9294
9994 9994
9396 9396
6113 6113
2361 2361
5073 5073
6498 6498
2960 2960
9870 9870
846 846
2349 2349
2033 2033
